
Gurobi 9.0.2 (win64) logging started Sun Dec 27 06:48:27 2020

Changed value of parameter logfile to result\SunCable-20201227T0415\scenario_2030_p20_cab3800.log
   Prev:   Default: 
Gurobi Optimizer version 9.0.2 build v9.0.2rc0 (win64)
Optimize a model with 1243974 rows, 762167 columns and 3491691 nonzeros
Model fingerprint: 0x3c170c0f
Coefficient statistics:
  Matrix range     [1e-07, 4e+05]
  Objective range  [1e+00, 1e+00]
  Bounds range     [0e+00, 0e+00]
  RHS range        [2e-05, 3e+08]
Warning: Model contains large matrix coefficient range
         Consider reformulating model or setting NumericFocus parameter
         to avoid numerical issues.

Concurrent LP optimizer: primal simplex, dual simplex, and barrier
Showing barrier log only...

Presolve removed 1068997 rows and 595935 columns
Presolve time: 2.72s
Presolved: 174977 rows, 280098 columns, 652320 nonzeros

Ordering time: 0.08s

Barrier statistics:
 Dense cols : 5
 AA' NZ     : 6.422e+05
 Factor NZ  : 3.150e+06 (roughly 200 MBytes of memory)
 Factor Ops : 7.040e+07 (less than 1 second per iteration)
 Threads    : 30

                  Objective                Residual
Iter       Primal          Dual         Primal    Dual     Compl     Time
   0  -2.51778577e+16 -1.07293965e+15  7.34e+06 2.55e+04  3.02e+12     3s
   1  -5.46483095e+15 -1.08609903e+15  1.59e+06 4.56e+06  8.52e+11     3s
   2  -1.75498416e+15 -1.02428569e+15  5.12e+05 8.63e+05  2.46e+11     4s
   3  -3.45302940e+14 -8.98965093e+14  1.02e+05 1.37e+05  4.94e+10     4s
   4  -7.78971138e+13 -5.52863952e+14  2.21e+04 3.75e+04  1.18e+10     4s
   5  -2.42175589e+13 -3.73575992e+14  7.03e+03 1.86e+04  4.53e+09     5s
   6  -7.29277338e+12 -2.62669004e+14  2.30e+03 9.23e+03  1.92e+09     5s
   7  -2.24500859e+12 -1.01288491e+14  8.24e+02 8.01e+02  4.34e+08     5s
   8   4.53233988e+11 -2.77657579e+13  2.00e+01 4.07e+01  5.53e+07     5s
   9   3.37622114e+11 -1.95985599e+12  6.25e+00 2.73e+00  4.44e+06     5s
  10   1.10438462e+11 -7.70497172e+11  1.21e+00 8.73e-01  1.61e+06     6s
  11   3.87518894e+10 -2.87814869e+11  2.78e-01 1.22e-01  5.86e+05     6s
  12   2.01843194e+10 -1.15186038e+11  1.14e-01 5.59e-09  2.42e+05     6s
  13   1.31756483e+10 -3.51675423e+10  5.25e-02 5.59e-09  8.65e+04     6s
  14   9.26650190e+09 -8.88648576e+09  1.84e-02 7.45e-09  3.24e+04     7s
  15   8.13103507e+09 -8.02929934e+08  8.03e-03 5.59e-09  1.59e+04     7s
  16   7.68394526e+09  2.39236922e+09  4.07e-03 5.59e-09  9.40e+03     7s
  17   7.45905328e+09  4.31014625e+09  2.30e-03 3.73e-09  5.59e+03     7s
  18   7.35099514e+09  5.93061148e+09  1.51e-03 3.73e-09  2.53e+03     8s
  19   7.29219748e+09  6.12298320e+09  1.12e-03 3.73e-09  2.08e+03     8s
  20   7.23008292e+09  6.48649847e+09  7.09e-04 3.73e-09  1.32e+03     8s
  21   7.17908850e+09  6.69210466e+09  3.56e-04 2.79e-09  8.62e+02     8s
  22   7.16019530e+09  6.75983965e+09  2.25e-04 2.79e-09  7.07e+02     9s
  23   7.14330451e+09  6.82659754e+09  1.25e-04 1.86e-09  5.59e+02     9s
  24   7.13398705e+09  6.89526437e+09  7.08e-05 1.86e-09  4.21e+02     9s
  25   7.13020719e+09  6.96069196e+09  5.03e-05 1.86e-09  2.99e+02     9s
  26   7.12533768e+09  7.01343181e+09  2.40e-05 1.86e-09  1.97e+02     9s
  27   7.12185040e+09  7.04116749e+09  9.31e-06 1.86e-09  1.42e+02    10s
  28   7.12110226e+09  7.05373308e+09  5.58e-06 1.86e-09  1.19e+02    10s
  29   7.12044872e+09  7.06407227e+09  2.92e-06 1.86e-09  9.92e+01    10s
  30   7.12020258e+09  7.07394944e+09  2.29e-06 1.86e-09  8.14e+01    10s
  31   7.11991045e+09  7.08130620e+09  1.30e-06 1.86e-09  6.79e+01    11s
  32   7.11965527e+09  7.08936492e+09  9.16e-07 1.86e-09  5.33e+01    11s
  33   7.11948706e+09  7.09379810e+09  6.35e-07 1.86e-09  4.52e+01    11s
  34   7.11929322e+09  7.10288963e+09  1.42e-07 1.86e-09  2.88e+01    12s
  35   7.11916367e+09  7.10405451e+09  8.11e-08 1.86e-09  2.66e+01    12s
  36   7.11914469e+09  7.11181503e+09  7.30e-08 1.86e-09  1.29e+01    12s
  37   7.11912940e+09  7.11255263e+09  2.70e-07 2.79e-09  1.16e+01    12s
  38   7.11905904e+09  7.11506868e+09  1.02e-07 1.86e-09  7.02e+00    12s
  39   7.11903635e+09  7.11625637e+09  1.22e-07 1.86e-09  4.89e+00    13s
  40   7.11903636e+09  7.11656193e+09  3.44e-07 1.86e-09  4.35e+00    13s
  41   7.11903503e+09  7.11668097e+09  2.97e-07 1.86e-09  4.14e+00    13s
  42   7.11903441e+09  7.11700529e+09  2.22e-07 1.86e-09  3.57e+00    13s
  43   7.11903192e+09  7.11715944e+09  6.73e-07 1.86e-09  3.29e+00    13s
  44   7.11903310e+09  7.11799509e+09  6.26e-07 1.86e-09  1.83e+00    14s
  45   7.11902638e+09  7.11847790e+09  9.46e-07 1.86e-09  9.64e-01    14s
  46   7.11901944e+09  7.11890738e+09  3.23e-07 2.79e-09  1.97e-01    14s
  47   7.11901899e+09  7.11893473e+09  1.38e-07 1.86e-09  1.48e-01    15s
  48   7.11901835e+09  7.11901203e+09  5.23e-07 2.79e-09  1.11e-02    15s
  49   7.11901775e+09  7.11901775e+09  1.06e-08 2.79e-09  2.10e-06    15s
  50   7.11901775e+09  7.11901775e+09  2.21e-04 6.02e-09  1.72e-06    15s

Barrier solved model in 50 iterations and 15.40 seconds
Optimal objective 7.11901775e+09

Crossover log...

   20779 DPushes remaining with DInf 0.0000000e+00                16s
       0 DPushes remaining with DInf 0.0000000e+00                18s
Warning: Markowitz tolerance tightened to 0.5

   63770 PPushes remaining with PInf 0.0000000e+00                18s
   12265 PPushes remaining with PInf 0.0000000e+00                20s
       0 PPushes remaining with PInf 0.0000000e+00                22s

  Push phase complete: Pinf 0.0000000e+00, Dinf 3.2604013e-08     22s

Iteration    Objective       Primal Inf.    Dual Inf.      Time
   83082    7.1190178e+09   0.000000e+00   0.000000e+00     23s

Solved with barrier
Solved in 83082 iterations and 23.20 seconds
Optimal objective  7.119017750e+09
Warning: unscaled primal violation = 0.00086895 and residual = 0.00086895
